c b=2,c=233
p cnf 12 24
2 -4 0
2 -7 0
1 2 -9 0
1 2 -10 0
2 -11 0
-2 4 0
-2 7 0
1 -2 9 0
-2 10 0
1 -2 11 0
1 -3 0
1 -6 0
1 -8 0
1 -12 0
-1 2 9 0
2 -12 0
-1 -2 -9 0
-1 -2 12 0
-1 3 0
-1 6 0
-1 8 0
-1 10 0
-1 -11 0
-5 0
